npieces = 10; 
nplayers = 50; 
duration = [9, 3, 1, 6, 4, 1, 2, 5, 7, 5];
rehearsal = [[0, 1, 1, 1, 0, 1, 1, 1, 1, 0], [0, 1, 1, 1, 0, 1, 1, 0, 1, 1], [1, 1, 1, 1, 0, 1, 1, 0, 0, 1], [0, 0, 1, 0, 0, 0, 1, 1, 1, 1], [0, 0, 1, 1, 1, 0, 0, 0, 1, 1], [1, 1, 0, 1, 1, 1, 0, 1, 1, 1], [1, 1, 1, 0, 1, 1, 1, 1, 0, 0], [1, 0, 1, 0, 1, 1, 0, 1, 1, 0], [1, 1, 0, 1, 1, 1, 0, 1, 0, 1], [0, 0, 1, 1, 1, 1, 0, 1, 0, 1], [1, 0, 1, 0, 0, 0, 1, 1, 0, 1], [1, 0, 0, 1, 0, 1, 0, 1, 1, 0], [1, 1, 1, 0, 1, 1, 1, 1, 0, 1], [1, 1, 1, 0, 0, 0, 1, 0, 0, 1], [0, 0, 1, 0, 0, 0, 1, 1, 1, 1], [0, 1, 0, 1, 0, 1, 0, 0, 0, 1], [1, 0, 1, 1, 1, 0, 0, 1, 1, 1], [1, 0, 1, 1, 0, 1, 0, 1, 1, 0], [0, 0, 1, 1, 0, 0, 1, 1, 1, 0], [0, 1, 0, 1, 0, 1, 1, 1, 1, 0], [0, 1, 1, 1, 0, 1, 1, 0, 1, 0], [1, 1, 0, 0, 0, 0, 0, 0, 0, 0], [1, 1, 0, 1, 1, 1, 1, 0, 1, 1], [1, 1, 1, 1, 0, 0, 0, 1, 0, 0], [1, 1, 1, 1, 0, 1, 1, 0, 1, 0], [0, 0, 1, 1, 0, 1, 1, 1, 0, 1], [1, 0, 0, 0, 0, 1, 0, 1, 1, 1], [0, 1, 0, 1, 1, 1, 1, 1, 1, 1], [1, 1, 0, 1, 1, 1, 0, 0, 1, 1], [1, 1, 1, 1, 1, 1, 0, 1, 0, 0], [0, 0, 0, 1, 1, 1, 1, 1, 0, 1], [0, 0, 1, 0, 0, 0, 0, 0, 1, 1], [1, 0, 1, 0, 0, 1, 1, 0, 0, 0], [0, 0, 1, 1, 1, 1, 1, 1, 0, 1], [1, 0, 1, 1, 0, 0, 1, 0, 1, 1], [0, 1, 1, 0, 1, 0, 0, 1, 1, 1], [0, 0, 1, 1, 1, 0, 0, 1, 1, 1], [0, 1, 1, 1, 1, 1, 0, 0, 1, 0], [0, 1, 1, 0, 1, 0, 0, 1, 0, 1], [1, 0, 1, 0, 1, 0, 1, 1, 1, 0], [1, 1, 1, 0, 1, 1, 0, 1, 1, 1], [0, 0, 1, 1, 1, 1, 1, 0, 0, 1], [0, 1, 0, 1, 1, 1, 0, 1, 0, 1], [1, 0, 0, 0, 1, 1, 0, 1, 0, 0], [0, 1, 0, 1, 0, 1, 0, 1, 1, 0], [1, 1, 0, 0, 1, 0, 1, 1, 0, 1], [0, 0, 1, 0, 1, 1, 1, 1, 0, 1], [0, 1, 0, 1, 0, 1, 1, 0, 0, 1], [1, 1, 0, 1, 0, 1, 1, 0, 1, 0], [0, 1, 1, 1, 1, 0, 0, 0, 0, 0]];